NAME : tsp40_29.200.tour
COMMENT : Length = 200
COMMENT : Found by LKH [Keld Helsgaun]
TYPE : TOUR
DIMENSION : 40
TOUR_SECTION
1
2
24
37
17
12
34
8
6
31
26
10
28
13
19
16
4
18
25
21
11
39
3
35
32
22
20
30
14
7
5
29
27
9
23
36
38
40
15
33
-1
EOF
